12 24 9 10
20 11 19 12 5 11 17 14 16 1 16 7 10 14 17 15 9 14 2 14 7 12 7 8 
4.64 15.76 4.82 3.24 4.82 0.6 7.04 15.65 13.23 5.75 14.42 7.7 15.52 2.34 10.51 7.87 6.18 6.05 1.61 15.89 10.37 12.44 15.9 13.29 
10.95 6.38 7.47 7.78 3.9 4.42 6.72 5.98 3.54 5.01 12.23 14.16 15.28 15.49 13.34 6.5 8.4 2.34 15.87 11.99 1.79 4.81 11.73 12.25 
9.13 9.04 2.92 15.56 10.23 5.65 2.29 9.5 12.27 1.35 11.16 7.48 13.56 9.68 14.82 6.46 6.44 6.21 7.11 9.26 9.55 1.87 11 2.06 
0.63 4.06 14.49 1.24 6.58 11.35 15.82 7.46 14.89 11.04 3.71 7.88 8.47 0.22 13 15.36 9.89 12.59 0.58 5.2 9.62 8.61 10.11 2.16 
4.28 15.27 8.23 9.38 1.73 14.7 11.33 15.95 3.17 6.19 8.25 1.02 11.48 15.39 3.01 15.48 6.38 0.19 4.5 9.91 10.87 3.39 6.84 14.24 
8.3 2.01 4.33 2.98 9.83 6.45 12.14 2.36 13.23 10.06 7.35 0.99 14.16 10.02 0.4 13.46 15.32 3.19 2.93 4.81 14.13 4.78 10.98 14.44 
4.76 1.02 5.46 2.72 10.9 5.56 9.87 9.8 6.6 6.81 1.87 13.61 0.82 14.5 8.64 4.31 12.69 4.83 5.4 8.9 13 7.6 12.96 10.23 
12.7 14.29 5.01 8.36 1.65 1.23 6.09 5.82 12.8 1.6 8.86 14.92 12.19 3.97 8.06 3.94 9.89 10.61 4.52 7.04 5.14 5.66 8.67 14.91 
4.6 12.14 8.83 13.4 15.63 13.54 4.1 4.3 3.08 15.49 2.89 13.66 7.27 8.29 9.31 4.31 13.21 14.03 5.56 10.44 6.45 1.59 1.7 2.64 
8 8 8 8 8 8 8 8 8 8 8 8 8 8 8 8 8 8 8 8 8 8 8 8 
5.8 2.96 9.3 6.12 1.9 7.87 13.52 2.76 5.2 1.6 15.34 3.14 0.6 7.35 13.74 4.64 11.12 11.69 0.15 12.97 7.49 8.18 15.95 7.68 
14.46 14.79 2.89 13.55 1.98 2.54 6.75 14.44 14.47 13.07 5.83 10.75 0.96 2.14 13.12 2.14 10.67 7.93 9.27 8.06 5.4 13.55 1.14 10.34 
1 1 1 1 1 1 1 1 1 1 1 1 1 1 1 1 1 1 1 1 1 1 1 1 
1 1 1 1 1 1 1 1 1 1 1 1 1 1 1 1 1 1 1 1 1 1 1 1 
1 1 1 1 1 1 1 1 1 1 1 1 1 1 1 1 1 1 1 1 1 1 1 1 
1 1 1 1 1 1 1 1 1 1 1 1 1 1 1 1 1 1 1 1 1 1 1 1 
1 1 1 1 1 1 1 1 1 1 1 1 1 1 1 1 1 1 1 1 1 1 1 1 
1 1 1 1 1 1 1 1 1 1 1 1 1 1 1 1 1 1 1 1 1 1 1 1 
1 1 1 1 1 1 1 1 1 1 1 1 1 1 1 1 1 1 1 1 1 1 1 1 
1 1 1 1 1 1 1 1 1 1 1 1 1 1 1 1 1 1 1 1 1 1 1 1 
1 1 1 1 1 1 1 1 1 1 1 1 1 1 1 1 1 1 1 1 1 1 1 1 
1 1 1 1 1 1 1 1 1 1 1 1 1 1 1 1 1 1 1 1 1 1 1 1 
1 1 1 1 1 1 1 1 1 1 1 1 1 1 1 1 1 1 1 1 1 1 1 1 
1 1 1 1 1 1 1 1 1 1 1 1 1 1 1 1 1 1 1 1 1 1 1 1 
0.01 0.01 0.01 0.01 0.01 0.01 0.01 0.01 0.01 0.01 0.01 0.01 0.01 0.01 0.01 0.01 0.01 0.01 0.01 0.01 0.01 0.01 0.01 0.01 
0.02 0.02 0.02 0.02 0.02 0.02 0.02 0.02 0.02 0.02 0.02 0.02 0.02 0.02 0.02 0.02 0.02 0.02 0.02 0.02 0.02 0.02 0.02 0.02 
0.03 0.03 0.03 0.03 0.03 0.03 0.03 0.03 0.03 0.03 0.03 0.03 0.03 0.03 0.03 0.03 0.03 0.03 0.03 0.03 0.03 0.03 0.03 0.03 
0.04 0.04 0.04 0.04 0.04 0.04 0.04 0.04 0.04 0.04 0.04 0.04 0.04 0.04 0.04 0.04 0.04 0.04 0.04 0.04 0.04 0.04 0.04 0.04 
0.05 0.05 0.05 0.05 0.05 0.05 0.05 0.05 0.05 0.05 0.05 0.05 0.05 0.05 0.05 0.05 0.05 0.05 0.05 0.05 0.05 0.05 0.05 0.05 
0.06 0.06 0.06 0.06 0.06 0.06 0.06 0.06 0.06 0.06 0.06 0.06 0.06 0.06 0.06 0.06 0.06 0.06 0.06 0.06 0.06 0.06 0.06 0.06 
0.07 0.07 0.07 0.07 0.07 0.07 0.07 0.07 0.07 0.07 0.07 0.07 0.07 0.07 0.07 0.07 0.07 0.07 0.07 0.07 0.07 0.07 0.07 0.07 
0.08 0.08 0.08 0.08 0.08 0.08 0.08 0.08 0.08 0.08 0.08 0.08 0.08 0.08 0.08 0.08 0.08 0.08 0.08 0.08 0.08 0.08 0.08 0.08 
0.09 0.09 0.09 0.09 0.09 0.09 0.09 0.09 0.09 0.09 0.09 0.09 0.09 0.09 0.09 0.09 0.09 0.09 0.09 0.09 0.09 0.09 0.09 0.09 
0.1 0.1 0.1 0.1 0.1 0.1 0.1 0.1 0.1 0.1 0.1 0.1 0.1 0.1 0.1 0.1 0.1 0.1 0.1 0.1 0.1 0.1 0.1 0.1 
0.5 0.5 0.5 0.5 0.5 0.5 0.5 0.5 0.5 0.5 0.5 0.5 0.5 0.5 0.5 0.5 0.5 0.5 0.5 0.5 0.5 0.5 0.5 0.5 
1 1 1 1 1 1 1 1 1 1 1 1 1 1 1 1 1 1 1 1 1 1 1 1 
